c Random generated cnf formula, satisfiable: true
p cnf 10 50
1 2 -9 0
5 4 2 0
1 10 9 0
-7 8 -10 0
-8 -5 -3 0
-8 9 1 0
3 10 6 0
6 -7 1 0
-2 1 -7 0
-10 -3 -5 0
3 -7 -10 0
7 3 -10 0
-4 -1 5 0
3 -10 -2 0
-6 -2 4 0
-5 1 -3 0
3 -6 4 0
3 -7 6 0
-2 5 3 0
4 6 9 0
-10 2 3 0
-8 10 6 0
-4 3 -1 0
-7 -6 -10 0
-7 6 -8 0
10 4 9 0
10 4 -7 0
-10 -2 4 0
10 -3 -7 0
-8 6 1 0
4 -5 3 0
-3 -2 8 0
-3 -10 -8 0
7 2 4 0
9 8 1 0
-7 -5 -6 0
-1 -3 -4 0
2 -1 -6 0
6 -2 -3 0
-10 -6 7 0
7 -2 -5 0
6 -2 -1 0
-3 1 6 0
6 -8 3 0
-10 5 2 0
10 -5 9 0
1 10 6 0
-1 7 5 0
7 6 3 0
-4 -5 -6 0
